p cnf 23 56
a 16 19 0
e 1 2 3 4 5 6 7 8 9 10 11 12 13 14 15 17 18 20 21 22 23 0
-3 -4 0
3 -4 0
2 4 -5 0
-2 -4 -5 0
2 -4 5 0
-2 4 5 0
6 -1 0
6 -5 0
1 5 -6 0
5 7 -8 0
-5 -7 -8 0
5 -7 8 0
-5 7 8 0
-9 -6 0
-9 -8 0
6 8 9 0
-10 11 -12 0
10 -11 -12 0
-10 -11 12 0
10 11 12 0
13 -12 0
13 -10 0
12 10 -13 0
15 -2 0
15 14 0
2 -14 -15 0
-4 15 -16 0
4 -15 -16 0
-4 -15 16 0
4 15 16 0
-16 2 -17 0
16 -2 -17 0
-16 -2 17 0
16 2 17 0
18 -17 0
18 4 0
17 -4 -18 0
-20 19 0
-20 -11 0
-19 11 20 0
-21 18 0
-21 -20 0
-18 20 21 0
22 13 0
22 -21 0
-13 21 -22 0
9 -22 -23 0
-9 22 -23 0
9 22 23 0
-9 -22 23 0
1 -20 -14 0
-18 17 -9 22 -4 0
13 -20 21 11 -4 14 0
22 -4 23 19 -9 -13 0
9 4 -12 2 -7 11 0
23 0
